problems/csplib-prob015/SchursLemma-models/noch/O2/lingeling/model_1_2-3-8-solution000001.eprime-solution
language ESSENCE' 1.0

letting boxes_PartitionAsSet_ExplicitR6_ExplicitVarSizeWithDummy be
        [[1, 2, 9, 9, 9, 9, 9, 9; int(1..8)], [3, 6, 8, 9, 9, 9, 9, 9; int(1..8)],
         [4, 5, 7, 9, 9, 9, 9, 9; int(1..8)]; int(1..3)]
